(set-logic QF_S)
(declare-fun _var_0xINPUT_125411_() String)
(declare-fun __woorpje_diseq_pref0_() String)
(declare-fun __woorpje_diseq_suf_l0_() String)
(declare-fun __woorpje_diseq_suf_r0_() String)
(declare-fun __woorpje_diseq_pref1_() String)
(declare-fun __woorpje_diseq_suf_l1_() String)
(declare-fun __woorpje_diseq_suf_r1_() String)
(assert (=(str.++  "j2DpYJpVEE" "")(str.++ _var_0xINPUT_125411_  "")) )
(assert (=(str.++ _var_0xINPUT_125411_  "")(str.++  "j2DpYJpVEE" "")) )
(check-sat)
